Version identifier: 22.1.0.0 | 2022-03-09 | 1a383f8ce
CPXPARAM_Threads                                 1
CPXPARAM_MIP_Strategy_VariableSelect             3
CPXPARAM_TimeLimit                               599.99995244000002
1 of 1 MIP starts provided solutions.
MIP start 'm1' defined initial solution with objective 27.0000.
Tried aggregator 1 time.
MIP Presolve eliminated 21 rows and 0 columns.
MIP Presolve modified 38 coefficients.
Reduced MIP has 4500 rows, 10500 columns, and 246873 nonzeros.
Reduced MIP has 10500 binaries, 0 generals, 0 SOSs, and 0 indicators.
Presolve time = 0.24 sec. (396.72 ticks)
Probing time = 0.04 sec. (33.03 ticks)
Tried aggregator 1 time.
Detecting symmetries...
MIP Presolve modified 12 coefficients.
Reduced MIP has 4500 rows, 10500 columns, and 247051 nonzeros.
Reduced MIP has 10500 binaries, 0 generals, 0 SOSs, and 0 indicators.
Presolve time = 0.23 sec. (376.68 ticks)
Probing time = 0.03 sec. (33.04 ticks)
Clique table members: 2244.
MIP emphasis: balance optimality and feasibility.
MIP search method: dynamic search.
Parallel mode: none, using 1 thread.
Root relaxation solution time = 128.73 sec. (151516.93 ticks)

        Nodes                                         Cuts/
   Node  Left     Objective  IInf  Best Integer    Best Bound    ItCnt     Gap

*     0+    0                           27.0000   125250.0000              --- 
      0     0      500.0000  1996       27.0000      500.0000   147845     --- 
      0     0      500.0000  1253       27.0000   Cliques: 10   171724     --- 
      0     0      500.0000  1861       27.0000      Cuts: 18   325440     --- 
      0     0      500.0000  1844       27.0000       Cuts: 2   597331     --- 

Clique cuts applied:  8
Zero-half cuts applied:  1

Root node processing (before b&c):
  Real time             =  600.02 sec. (696571.95 ticks)
Sequential b&c:
  Real time             =    0.00 sec. (0.00 ticks)
                          ------------
Total (root+branch&cut) =  600.02 sec. (696571.95 ticks)
Primal:	27
Dual:	500
Status:	Feasible
Time:	600.08
Sequence:
	5
	5
	5
	0
	0
	5
	18
	5
	0
	7
	18
	5
	5
	7
	0
	5
	18
	5
	0
	0
	6
	7
	0
	0
	0
	7
	6
